3
3
4
1 2 3
4 5 1
58
41
57 95 13 29 1 99 34 77 61 23 24 70 73 88 33 61 43 5 41 63 8 67 20 72 98 59 46 58 64 94 97 70 46 81 42 7 1 52 20 54 81 3 73 78 81 11 41 45 18 94 24 82 9 19 59 48 2 72
83 84 85 76 13 87 2 23 33 82 79 100 88 85 91 78 83 44 4 50 11 68 90 88 73 83 46 16 7 35 76 31 40 49 65 2 18 47 55 38 75 58 86 77 96 94 82 92 10 86 54 49 65 44 77 22 81 52
46
65
42 70 11 89 89 69 11 46 64 75 70 33 91 13 46 12 100 25 19 35 76 67 70 30 55 76 58 16 75 63 27 47 64 10 38 79 30 46 10 40 1 95 33 60 80 78
2 60 74 55 74 10 26 65 60 15 82 40 22 30 62 99 48 76 72 45 55 53 67 28 78 11 60 4 36 33 4 70 34 47 35 5 22 53 28 65 9 9 78 41 65 5
